Problem:    
Rows:       260
Columns:    89 (72 integer, 72 binary)
Non-zeros:  974
Status:     INTEGER OPTIMAL
Objective:  value = 87.20488 (MINimum)

   No.   Row name        Activity     Lower bound   Upper bound
------ ------------    ------------- ------------- -------------
     1 r.5                   87.2049             0               
     2 r.6                   44.6126      -978.294               
     3 r.7                    1087.2             0               
     4 r.8                  -957.853        -960.6               
     5 r.9                    1087.2             0               
     6 r.10                 -956.459      -979.085               
     7 r.11                  87.2049             0               
     8 r.12                  43.5413      -961.136               
     9 r.13                   1087.2             0               
    10 r.14                 -978.445      -997.677               
    11 r.15                  87.2049             0               
    12 r.16                  44.9355      -994.922               
    13 r.17                   1087.2             0               
    14 r.18                 -981.513      -995.317               
    15 r.19                  87.2049             0               
    16 r.20                  43.5413      -992.442               
    17 r.21                   1087.2             0               
    18 r.22                 -987.267      -990.014               
    19 r.23                  87.2049             0               
    20 r.24                  47.3652        -980.7               
    21 r.25                   1087.2             0               
    22 r.26                 -998.324      -998.324               
    23 r.27                  87.2049             0               
    24 r.28                 -996.297      -996.297               
    25 r.29                   1087.2             0               
    26 r.30                 -912.795      -956.336               
    27 r.31                  87.2049             0               
    28 r.32                  87.2049      -958.209               
    29 r.33                  87.2049             0               
    30 r.34                  87.2049       -955.47               
    31 r.35                   1087.2             0               
    32 r.36                 -912.795      -958.766               
    33 r.37                        1             1             = 
    34 r.38                        1             1             = 
    35 r.39                        1             1             = 
    36 r.40                        1             1             = 
    37 r.41                        1             1             = 
    38 r.42                        1             1             = 
    39 r.43                        1             1             = 
    40 r.44                        1             1             = 
    41 r.45                     1001             2               
    42 r.46                    -1001         -1001               
    43 r.47                     2000      -979.085               
    44 r.48                     1001             2               
    45 r.49                    -1001         -1001               
    46 r.50                     2000      -961.136               
    47 r.51                     1001             2               
    48 r.52                    -1001         -1001               
    49 r.53                  1978.01      -997.677               
    50 r.54                     1001             2               
    51 r.55                    -1001         -1001               
    52 r.56                  2001.39      -994.922               
    53 r.57                     1001             2               
    54 r.58                    -1001         -1001               
    55 r.59                  1974.95      -995.317               
    56 r.60                     1001             2               
    57 r.61                    -1001         -1001               
    58 r.62                     2000      -992.442               
    59 r.63                     1001             2               
    60 r.64                    -1001         -1001               
    61 r.65                  1969.19      -990.014               
    62 r.66                     1001             2               
    63 r.67                    -1001         -1001               
    64 r.68                  2003.82        -980.7               
    65 r.69                  41.8654      -978.294               
    66 r.70                   -960.6        -960.6               
    67 r.71                   1042.3      -978.294               
    68 r.72                  39.8379        -960.6               
    69 r.73                 -956.336      -956.336               
    70 r.74                  43.6636      -958.209               
    71 r.75                 -956.336      -956.336               
    72 r.76                  43.6636      -958.209               
    73 r.77                  43.6636       -955.47               
    74 r.78                 -956.336      -958.766               
    75 r.79                  43.6636       -955.47               
    76 r.80                 -956.336      -958.766               
    77 r.81                     1001             2               
    78 r.82                    -1001         -1001               
    79 r.83                  2001.07       21.7058               
    80 r.84                     1001             2               
    81 r.85                    -1001         -1001               
    82 r.86                  1998.61       39.3998               
    83 r.87                        2             2               
    84 r.88                       -2         -1001               
    85 r.89                 -21.9864      -997.677               
    86 r.90                     1000             2               
    87 r.91                    -1000         -1001               
    88 r.92                  2001.39      -994.922               
    89 r.93                        2             2               
    90 r.94                       -2         -1001               
    91 r.95                 -25.0543      -995.317               
    92 r.96                     1000             2               
    93 r.97                    -1000         -1001               
    94 r.98                     2000      -992.442               
    95 r.99                        2             2               
    96 r.100                      -2         -1001               
    97 r.101                -30.8086      -990.014               
    98 r.102                    1000             2               
    99 r.103                   -1000         -1001               
   100 r.104                 2003.82        -980.7               
   101 r.105                -959.206      -979.085               
   102 r.106                 40.7941      -961.136               
   103 r.107                 41.2321      -979.085               
   104 r.108                 1041.23      -961.136               
   105 r.109                -956.336      -956.336               
   106 r.110                 43.6636      -958.209               
   107 r.111                -956.336      -956.336               
   108 r.112                 43.6636      -958.209               
   109 r.113                    1001             2               
   110 r.114                   -1001         -1001               
   111 r.115                 2043.66       -955.47               
   112 r.116                    1001             2               
   113 r.117                   -1001         -1001               
   114 r.118                 2043.66      -958.766               
   115 r.119                    1001             2               
   116 r.120                   -1001         -1001               
   117 r.121                 2021.99       21.7058               
   118 r.122                    1001             2               
   119 r.123                   -1001         -1001               
   120 r.124                 1998.61       39.3998               
   121 r.125                       2             2               
   122 r.126                      -2         -1001               
   123 r.127                 20.9152       20.9152               
   124 r.128                    1000             2               
   125 r.129                   -1000         -1001               
   126 r.130                    2000       38.8637               
   127 r.131                       2             2               
   128 r.132                      -2         -1001               
   129 r.133                -4.13917      -995.317               
   130 r.134                    1000             2               
   131 r.135                   -1000         -1001               
   132 r.136                    2000      -992.442               
   133 r.137                       2             2               
   134 r.138                      -2         -1001               
   135 r.139                -9.89344      -990.014               
   136 r.140                    1000             2               
   137 r.141                   -1000         -1001               
   138 r.142                 2003.82        -980.7               
   139 r.143                -981.192      -997.677               
   140 r.144                 42.1884      -994.922               
   141 r.145                 19.2457      -997.677               
   142 r.146                 1042.63      -994.922               
   143 r.147                -935.421      -956.336               
   144 r.148                 64.5788      -958.209               
   145 r.149                -956.336      -956.336               
   146 r.150                 43.6636      -958.209               
   147 r.151                 64.5788       -955.47               
   148 r.152                -935.421      -958.766               
   149 r.153                 43.6636       -955.47               
   150 r.154                -956.336      -958.766               
   151 r.155                    1001             2               
   152 r.156                   -1001         -1001               
   153 r.157                 2026.13       21.7058               
   154 r.158                    1001             2               
   155 r.159                   -1001         -1001               
   156 r.160                 1998.61       39.3998               
   157 r.161                       2             2               
   158 r.162                      -2         -1001               
   159 r.163                 25.0543       20.9152               
   160 r.164                    1000             2               
   161 r.165                   -1000         -1001               
   162 r.166                    2000       38.8637               
   163 r.167                       2             2               
   164 r.168                      -2         -1001               
   165 r.169                  3.0679         2.323               
   166 r.170                    1000             2               
   167 r.171                   -1000         -1001               
   168 r.172                 2001.39       5.07795               
   169 r.173                       2             2               
   170 r.174                      -2         -1001               
   171 r.175                -5.75427      -990.014               
   172 r.176                    1000             2               
   173 r.177                   -1000         -1001               
   174 r.178                 2003.82        -980.7               
   175 r.179                 -984.26      -995.317               
   176 r.180                 40.7941      -992.442               
   177 r.181                 16.1778      -995.317               
   178 r.182                 1041.23      -992.442               
   179 r.183                -931.282      -956.336               
   180 r.184                 68.7179      -958.209               
   181 r.185                -956.336      -956.336               
   182 r.186                 43.6636      -958.209               
   183 r.187                    1001             2               
   184 r.188                   -1001         -1001               
   185 r.189                 2068.72       -955.47               
   186 r.190                    1001             2               
   187 r.191                   -1001         -1001               
   188 r.192                 2043.66      -958.766               
   189 r.193                    1001             2               
   190 r.194                   -1001         -1001               
   191 r.195                 2030.81       21.7058               
   192 r.196                    1001             2               
   193 r.197                   -1001         -1001               
   194 r.198                 1996.18       39.3998               
   195 r.199                       2             2               
   196 r.200                      -2         -1001               
   197 r.201                 29.7373       20.9152               
   198 r.202                    1000             2               
   199 r.203                   -1000         -1001               
   200 r.204                 1997.57       38.8637               
   201 r.205                       2             2               
   202 r.206                      -2         -1001               
   203 r.207                  7.7509         2.323               
   204 r.208                    1000             2               
   205 r.209                   -1000         -1001               
   206 r.210                 1998.96       5.07795               
   207 r.211                       2             2               
   208 r.212                      -2         -1001               
   209 r.213                   4.683         4.683               
   210 r.214                    1000             2               
   211 r.215                   -1000         -1001               
   212 r.216                 1997.57       7.55835               
   213 r.217                -990.014      -990.014               
   214 r.218                 44.6181        -980.7               
   215 r.219                 10.4235      -990.014               
   216 r.220                 1045.06        -980.7               
   217 r.221                       2             2               
   218 r.222                      -2         -1001               
   219 r.223                -926.599      -956.336               
   220 r.224                    1000             2               
   221 r.225                   -1000         -1001               
   222 r.226                 2041.23      -958.209               
   223 r.227                 73.4009       -955.47               
   224 r.228                -926.599      -958.766               
   225 r.229                 41.2339       -955.47               
   226 r.230                -958.766      -958.766               
   227 r.231                -915.542      -956.336               
   228 r.232                 84.4577      -958.209               
   229 r.233                 84.8957      -956.336               
   230 r.234                  1084.9      -958.209               
   231 r.235                       2             2               
   232 r.236                      -2         -1001               
   233 r.237                 925.528        9.9855               
   234 r.238                    1000             2               
   235 r.239                   -1000         -1001               
   236 r.240                 1960.16       19.3004               
   237 r.241                    1001             2               
   238 r.242                   -1001         -1001               
   239 r.243                    2000       -955.47               
   240 r.244                    1001             2               
   241 r.245                   -1001         -1001               
   242 r.246                    2000      -958.766               
   243 r.247                    1001             2               
   244 r.248                   -1001         -1001               
   245 r.249                 1956.34       20.9152               
   246 r.250                    1001             2               
   247 r.251                   -1001         -1001               
   248 r.252                 1956.34       38.8637               
   249 r.253                    1001             2               
   250 r.254                   -1001         -1001               
   251 r.255                 1931.28         4.683               
   252 r.256                    1001             2               
   253 r.257                   -1001         -1001               
   254 r.258                 1956.34       7.55835               
   255 r.259                    1001             2               
   256 r.260                   -1001         -1001               
   257 r.261                    2000       43.6636               
   258 r.262                    1001             2               
   259 r.263                   -1001         -1001               
   260 r.264                    2000       41.7914               

   No. Column name       Activity     Lower bound   Upper bound
------ ------------    ------------- ------------- -------------
     1 tt                    87.2049             0               
     2 s_1_1        *              0             0             1 
     3 t_1_1                 43.6636             0               
     4 s_1_8        *              0             0             1 
     5 s_1_7        *              1             0             1 
     6 s_2_1        *              1             0             1 
     7 t_2_1                 43.6636             0               
     8 s_2_8        *              1             0             1 
     9 s_2_7        *              0             0             1 
    10 s_1_2        *              1             0             1 
    11 t_1_2                 43.6636             0               
    12 s_2_2        *              0             0             1 
    13 t_2_2                 43.6636             0               
    14 s_1_3        *              1             0             1 
    15 t_1_3                 64.5788             0               
    16 s_2_3        *              0             0             1 
    17 t_2_3                 43.6636             0               
    18 s_1_4        *              1             0             1 
    19 t_1_4                 68.7179             0               
    20 s_2_4        *              0             0             1 
    21 t_2_4                 43.6636             0               
    22 s_1_5        *              1             0             1 
    23 t_1_5                 73.4009             0               
    24 s_2_5        *              0             0             1 
    25 t_2_5                 41.2339             0               
    26 s_1_6        *              1             0             1 
    27 t_1_6                 84.4577             0               
    28 s_2_6        *              0             0             1 
    29 t_2_6                  1084.9             0               
    30 t_1_7                       0             0               
    31 t_2_7                       0             0               
    32 t_1_8                       0             0               
    33 t_2_8                       0             0               
    34 r_1_1_2      *              1             0             1 
    35 u_1_1_2      *              0             0             1 
    36 r_2_1_2      *              1             0             1 
    37 u_2_1_2      *              0             0             1 
    38 r_1_1_3      *              1             0             1 
    39 u_1_1_3      *              0             0             1 
    40 r_2_1_3      *              1             0             1 
    41 u_2_1_3      *              0             0             1 
    42 r_1_1_4      *              1             0             1 
    43 u_1_1_4      *              0             0             1 
    44 r_2_1_4      *              1             0             1 
    45 u_2_1_4      *              0             0             1 
    46 r_1_1_5      *              1             0             1 
    47 u_1_1_5      *              0             0             1 
    48 r_2_1_5      *              1             0             1 
    49 u_2_1_5      *              0             0             1 
    50 r_1_2_3      *              0             0             1 
    51 u_1_2_3      *              0             0             1 
    52 r_2_2_3      *              1             0             1 
    53 u_2_2_3      *              0             0             1 
    54 r_1_2_4      *              0             0             1 
    55 u_1_2_4      *              0             0             1 
    56 r_2_2_4      *              1             0             1 
    57 u_2_2_4      *              0             0             1 
    58 r_1_2_5      *              0             0             1 
    59 u_1_2_5      *              0             0             1 
    60 r_2_2_5      *              1             0             1 
    61 u_2_2_5      *              0             0             1 
    62 r_1_2_8      *              1             0             1 
    63 u_1_2_8      *              0             0             1 
    64 r_2_2_8      *              1             0             1 
    65 u_2_2_8      *              0             0             1 
    66 r_1_3_4      *              0             0             1 
    67 u_1_3_4      *              0             0             1 
    68 r_2_3_4      *              1             0             1 
    69 u_2_3_4      *              0             0             1 
    70 r_1_3_5      *              0             0             1 
    71 u_1_3_5      *              0             0             1 
    72 r_2_3_5      *              1             0             1 
    73 u_2_3_5      *              0             0             1 
    74 r_1_4_5      *              0             0             1 
    75 u_1_4_5      *              0             0             1 
    76 r_2_4_5      *              1             0             1 
    77 u_2_4_5      *              0             0             1 
    78 r_1_4_8      *              1             0             1 
    79 u_1_4_8      *              0             0             1 
    80 r_2_4_8      *              1             0             1 
    81 u_2_4_8      *              0             0             1 
    82 r_1_5_7      *              0             0             1 
    83 u_1_5_7      *              1             0             1 
    84 r_2_5_7      *              1             0             1 
    85 u_2_5_7      *              0             0             1 
    86 r_1_7_8      *              1             0             1 
    87 u_1_7_8      *              0             0             1 
    88 r_2_7_8      *              1             0             1 
    89 u_2_7_8      *              0             0             1 

Integer feasibility conditions:

KKT.PE: max.abs.err = 2.27e-13 on row 4
        max.rel.err = 1.09e-16 on row 4
        High quality

KKT.PB: max.abs.err = 2.27e-13 on row 66
        max.rel.err = 2.36e-16 on row 66
        High quality

End of output
